c Generated map
c Size: 15 * 15, weights in range: 1 to 10, walls: True, with ratio 0.1
c dim 4 of 4
c
p sp 225 339
c graph contains 225 nodes and 339 arcs
c
a 1 16 2
a 16 1 2
a 3 18 2
a 18 3 2
a 3 4 7
a 4 3 7
a 4 5 6
a 5 4 6
a 5 20 9
a 20 5 9
a 5 6 7
a 6 5 7
a 6 21 3
a 21 6 3
a 6 7 1
a 7 6 1
a 7 22 2
a 22 7 2
a 7 8 10
a 8 7 10
a 8 23 3
a 23 8 3
a 8 9 3
a 9 8 3
a 9 24 4
a 24 9 4
a 9 10 4
a 10 9 4
a 10 11 10
a 11 10 10
a 11 26 2
a 26 11 2
a 11 12 6
a 12 11 6
a 12 27 2
a 27 12 2
a 12 13 7
a 13 12 7
a 13 28 3
a 28 13 3
a 13 14 9
a 14 13 9
a 14 29 8
a 29 14 8
a 14 15 1
a 15 14 1
a 15 30 8
a 30 15 8
a 16 31 6
a 31 16 6
a 16 17 1
a 17 16 1
a 17 32 4
a 32 17 4
a 17 18 10
a 18 17 10
a 18 33 10
a 33 18 10
a 20 35 5
a 35 20 5
a 20 21 1
a 21 20 1
a 21 22 1
a 22 21 1
a 22 37 4
a 37 22 4
a 22 23 1
a 23 22 1
a 23 24 8
a 24 23 8
a 24 39 1
a 39 24 1
a 26 41 6
a 41 26 6
a 26 27 1
a 27 26 1
a 27 42 4
a 42 27 4
a 27 28 6
a 28 27 6
a 28 43 7
a 43 28 7
a 28 29 4
a 29 28 4
a 29 44 6
a 44 29 6
a 29 30 6
a 30 29 6
a 30 45 7
a 45 30 7
a 31 46 6
a 46 31 6
a 31 32 5
a 32 31 5
a 32 47 3
a 47 32 3
a 32 33 9
a 33 32 9
a 33 48 4
a 48 33 4
a 33 34 9
a 34 33 9
a 34 49 4
a 49 34 4
a 34 35 3
a 35 34 3
a 35 50 5
a 50 35 5
a 37 52 6
a 52 37 6
a 39 54 7
a 54 39 7
a 39 40 5
a 40 39 5
a 40 55 2
a 55 40 2
a 40 41 6
a 41 40 6
a 41 56 4
a 56 41 4
a 41 42 8
a 42 41 8
a 42 57 6
a 57 42 6
a 42 43 3
a 43 42 3
a 43 44 3
a 44 43 3
a 44 59 7
a 59 44 7
a 44 45 3
a 45 44 3
a 45 60 10
a 60 45 10
a 46 61 5
a 61 46 5
a 46 47 1
a 47 46 1
a 47 62 7
a 62 47 7
a 47 48 6
a 48 47 6
a 48 63 4
a 63 48 4
a 48 49 5
a 49 48 5
a 49 64 9
a 64 49 9
a 49 50 6
a 50 49 6
a 50 65 10
a 65 50 10
a 50 51 8
a 51 50 8
a 51 66 5
a 66 51 5
a 51 52 1
a 52 51 1
a 52 67 10
a 67 52 10
a 52 53 3
a 53 52 3
a 53 54 7
a 54 53 7
a 54 69 6
a 69 54 6
a 54 55 1
a 55 54 1
a 55 70 1
a 70 55 1
a 55 56 9
a 56 55 9
a 56 71 5
a 71 56 5
a 56 57 3
a 57 56 3
a 57 72 8
a 72 57 8
a 59 60 5
a 60 59 5
a 60 75 1
a 75 60 1
a 61 76 4
a 76 61 4
a 61 62 10
a 62 61 10
a 62 77 10
a 77 62 10
a 62 63 1
a 63 62 1
a 63 78 6
a 78 63 6
a 63 64 8
a 64 63 8
a 64 79 5
a 79 64 5
a 64 65 9
a 65 64 9
a 65 80 10
a 80 65 10
a 65 66 6
a 66 65 6
a 66 67 6
a 67 66 6
a 67 82 1
a 82 67 1
a 69 84 8
a 84 69 8
a 69 70 2
a 70 69 2
a 70 85 10
a 85 70 10
a 70 71 9
a 71 70 9
a 71 86 6
a 86 71 6
a 71 72 1
a 72 71 1
a 72 73 3
a 73 72 3
a 73 88 9
a 88 73 9
a 75 90 5
a 90 75 5
a 76 91 7
a 91 76 7
a 76 77 2
a 77 76 2
a 77 92 9
a 92 77 9
a 77 78 10
a 78 77 10
a 78 93 10
a 93 78 10
a 78 79 10
a 79 78 10
a 79 94 6
a 94 79 6
a 79 80 7
a 80 79 7
a 80 95 4
a 95 80 4
a 82 97 1
a 97 82 1
a 82 83 2
a 83 82 2
a 83 98 8
a 98 83 8
a 83 84 7
a 84 83 7
a 84 99 3
a 99 84 3
a 84 85 9
a 85 84 9
a 85 100 2
a 100 85 2
a 85 86 8
a 86 85 8
a 86 101 4
a 101 86 4
a 88 103 2
a 103 88 2
a 90 105 3
a 105 90 3
a 91 106 8
a 106 91 8
a 91 92 9
a 92 91 9
a 92 107 6
a 107 92 6
a 92 93 3
a 93 92 3
a 93 108 4
a 108 93 4
a 93 94 6
a 94 93 6
a 94 109 8
a 109 94 8
a 94 95 5
a 95 94 5
a 95 96 8
a 96 95 8
a 96 111 5
a 111 96 5
a 96 97 2
a 97 96 2
a 97 112 2
a 112 97 2
a 97 98 4
a 98 97 4
a 98 113 2
a 113 98 2
a 98 99 10
a 99 98 10
a 99 114 7
a 114 99 7
a 99 100 7
a 100 99 7
a 100 115 7
a 115 100 7
a 100 101 3
a 101 100 3
a 101 116 5
a 116 101 5
a 101 102 1
a 102 101 1
a 102 117 2
a 117 102 2
a 102 103 6
a 103 102 6
a 103 118 3
a 118 103 3
a 103 104 7
a 104 103 7
a 104 119 9
a 119 104 9
a 104 105 8
a 105 104 8
a 105 120 1
a 120 105 1
a 106 121 10
a 121 106 10
a 106 107 8
a 107 106 8
a 107 122 7
a 122 107 7
a 107 108 8
a 108 107 8
a 108 123 3
a 123 108 3
a 108 109 9
a 109 108 9
a 109 124 3
a 124 109 3
a 111 126 4
a 126 111 4
a 111 112 2
a 112 111 2
a 112 127 10
a 127 112 10
a 112 113 4
a 113 112 4
a 113 128 2
a 128 113 2
a 113 114 10
a 114 113 10
a 114 129 6
a 129 114 6
a 114 115 10
a 115 114 10
a 115 130 9
a 130 115 9
a 115 116 1
a 116 115 1
a 116 131 6
a 131 116 6
a 116 117 7
a 117 116 7
a 117 132 8
a 132 117 8
a 117 118 9
a 118 117 9
a 118 133 3
a 133 118 3
a 118 119 6
a 119 118 6
a 119 134 10
a 134 119 10
a 119 120 10
a 120 119 10
a 120 135 10
a 135 120 10
a 121 136 4
a 136 121 4
a 121 122 6
a 122 121 6
a 122 123 2
a 123 122 2
a 123 138 2
a 138 123 2
a 123 124 4
a 124 123 4
a 126 141 8
a 141 126 8
a 126 127 6
a 127 126 6
a 127 142 2
a 142 127 2
a 127 128 9
a 128 127 9
a 128 143 8
a 143 128 8
a 128 129 4
a 129 128 4
a 129 144 8
a 144 129 8
a 129 130 1
a 130 129 1
a 130 145 5
a 145 130 5
a 130 131 5
a 131 130 5
a 131 146 10
a 146 131 10
a 131 132 9
a 132 131 9
a 132 147 3
a 147 132 3
a 132 133 2
a 133 132 2
a 133 148 10
a 148 133 10
a 133 134 3
a 134 133 3
a 134 149 8
a 149 134 8
a 134 135 9
a 135 134 9
a 135 150 6
a 150 135 6
a 136 151 7
a 151 136 7
a 138 153 7
a 153 138 7
a 140 141 9
a 141 140 9
a 141 156 8
a 156 141 8
a 141 142 2
a 142 141 2
a 142 157 6
a 157 142 6
a 142 143 2
a 143 142 2
a 143 158 7
a 158 143 7
a 143 144 6
a 144 143 6
a 144 159 10
a 159 144 10
a 144 145 6
a 145 144 6
a 145 160 2
a 160 145 2
a 145 146 3
a 146 145 3
a 146 161 7
a 161 146 7
a 146 147 7
a 147 146 7
a 147 162 10
a 162 147 10
a 147 148 6
a 148 147 6
a 148 163 8
a 163 148 8
a 148 149 7
a 149 148 7
a 149 164 1
a 164 149 1
a 149 150 10
a 150 149 10
a 150 165 7
a 165 150 7
a 151 166 3
a 166 151 3
a 151 152 3
a 152 151 3
a 152 153 9
a 153 152 9
a 153 154 4
a 154 153 4
a 154 169 7
a 169 154 7
a 156 171 6
a 171 156 6
a 156 157 3
a 157 156 3
a 157 172 6
a 172 157 6
a 157 158 8
a 158 157 8
a 158 173 7
a 173 158 7
a 158 159 5
a 159 158 5
a 159 174 1
a 174 159 1
a 159 160 9
a 160 159 9
a 160 175 2
a 175 160 2
a 160 161 1
a 161 160 1
a 161 176 7
a 176 161 7
a 161 162 9
a 162 161 9
a 162 177 4
a 177 162 4
a 162 163 7
a 163 162 7
a 163 178 10
a 178 163 10
a 163 164 6
a 164 163 6
a 164 179 7
a 179 164 7
a 164 165 9
a 165 164 9
a 165 180 4
a 180 165 4
a 166 181 9
a 181 166 9
a 169 184 10
a 184 169 10
a 169 170 1
a 170 169 1
a 170 171 4
a 171 170 4
a 171 186 4
a 186 171 4
a 171 172 8
a 172 171 8
a 172 187 10
a 187 172 10
a 172 173 2
a 173 172 2
a 173 188 6
a 188 173 6
a 173 174 5
a 174 173 5
a 174 189 5
a 189 174 5
a 174 175 8
a 175 174 8
a 175 190 7
a 190 175 7
a 175 176 1
a 176 175 1
a 176 191 9
a 191 176 9
a 176 177 5
a 177 176 5
a 177 192 7
a 192 177 7
a 177 178 5
a 178 177 5
a 178 193 9
a 193 178 9
a 178 179 6
a 179 178 6
a 179 194 4
a 194 179 4
a 179 180 5
a 180 179 5
a 181 182 7
a 182 181 7
a 182 197 6
a 197 182 6
a 182 183 6
a 183 182 6
a 183 198 10
a 198 183 10
a 183 184 10
a 184 183 10
a 184 199 10
a 199 184 10
a 186 201 2
a 201 186 2
a 186 187 10
a 187 186 10
a 187 202 1
a 202 187 1
a 187 188 4
a 188 187 4
a 188 203 7
a 203 188 7
a 188 189 1
a 189 188 1
a 189 204 8
a 204 189 8
a 189 190 10
a 190 189 10
a 190 205 8
a 205 190 8
a 190 191 10
a 191 190 10
a 191 206 2
a 206 191 2
a 191 192 6
a 192 191 6
a 192 207 1
a 207 192 1
a 192 193 3
a 193 192 3
a 193 208 10
a 208 193 10
a 193 194 1
a 194 193 1
a 194 209 2
a 209 194 2
a 197 212 6
a 212 197 6
a 197 198 4
a 198 197 4
a 198 213 7
a 213 198 7
a 198 199 10
a 199 198 10
a 199 214 6
a 214 199 6
a 199 200 9
a 200 199 9
a 200 215 9
a 215 200 9
a 200 201 2
a 201 200 2
a 201 216 10
a 216 201 10
a 201 202 9
a 202 201 9
a 202 217 7
a 217 202 7
a 202 203 3
a 203 202 3
a 203 218 3
a 218 203 3
a 203 204 3
a 204 203 3
a 204 219 8
a 219 204 8
a 204 205 1
a 205 204 1
a 205 206 8
a 206 205 8
a 206 221 8
a 221 206 8
a 206 207 5
a 207 206 5
a 207 222 5
a 222 207 5
a 207 208 6
a 208 207 6
a 208 223 5
a 223 208 5
a 208 209 1
a 209 208 1
a 209 224 4
a 224 209 4
a 209 210 1
a 210 209 1
a 210 225 10
a 225 210 10
a 211 212 4
a 212 211 4
a 212 213 7
a 213 212 7
a 213 214 3
a 214 213 3
a 214 215 9
a 215 214 9
a 215 216 1
a 216 215 1
a 216 217 1
a 217 216 1
a 217 218 2
a 218 217 2
a 218 219 2
a 219 218 2
a 221 222 9
a 222 221 9
a 222 223 6
a 223 222 6
a 223 224 5
a 224 223 5
a 224 225 7
a 225 224 7
